; benchmark generated from python API
(set-info :status unknown)
(declare-fun x_months () Int)
(declare-fun x_beta () Int)
(assert
 (<= (- 1200) x_months))
(assert
 (>= 1199 x_months))
(assert
 (let ((?x5654 (mod x_months 48)))
 (let ((?x211 ((as const (Array Int Int)) 0)))
 (let ((?x213 (store ?x211 0 31)))
 (let ((?x216 (store ?x213 1 30)))
 (let ((?x218 (store ?x216 2 31)))
 (let ((?x220 (store ?x218 3 30)))
 (let ((?x222 (store ?x220 4 31)))
 (let ((?x224 (store ?x222 5 31)))
 (let ((?x226 (store ?x224 6 30)))
 (let ((?x228 (store ?x226 7 31)))
 (let ((?x230 (store ?x228 8 30)))
 (let ((?x232 (store ?x230 9 31)))
 (let ((?x234 (store ?x232 10 31)))
 (let ((?x237 (store ?x234 11 28)))
 (let ((?x239 (store ?x237 12 31)))
 (let ((?x241 (store ?x239 13 30)))
 (let ((?x243 (store ?x241 14 31)))
 (let ((?x245 (store ?x243 15 30)))
 (let ((?x247 (store ?x245 16 31)))
 (let ((?x249 (store ?x247 17 31)))
 (let ((?x251 (store ?x249 18 30)))
 (let ((?x253 (store ?x251 19 31)))
 (let ((?x255 (store ?x253 20 30)))
 (let ((?x257 (store ?x255 21 31)))
 (let ((?x259 (store ?x257 22 31)))
 (let ((?x261 (store ?x259 23 28)))
 (let ((?x263 (store ?x261 24 31)))
 (let ((?x265 (store ?x263 25 30)))
 (let ((?x267 (store ?x265 26 31)))
 (let ((?x269 (store ?x267 27 30)))
 (let ((?x270 (store ?x269 28 31)))
 (let ((?x272 (store ?x270 29 31)))
 (let ((?x273 (store ?x272 30 30)))
 (let ((?x274 (store ?x273 31 31)))
 (let ((?x276 (store ?x274 32 30)))
 (let ((?x278 (store ?x276 33 31)))
 (let ((?x280 (store ?x278 34 31)))
 (let ((?x282 (store ?x280 35 28)))
 (let ((?x284 (store ?x282 36 31)))
 (let ((?x286 (store ?x284 37 30)))
 (let ((?x288 (store ?x286 38 31)))
 (let ((?x290 (store ?x288 39 30)))
 (let ((?x292 (store ?x290 40 31)))
 (let ((?x294 (store ?x292 41 31)))
 (let ((?x296 (store ?x294 42 30)))
 (let ((?x298 (store ?x296 43 31)))
 (let ((?x300 (store ?x298 44 30)))
 (let ((?x302 (store ?x300 45 31)))
 (let ((?x304 (store ?x302 46 31)))
 (let ((?x306 (store ?x304 47 29)))
 (let ((?x3536 (select ?x306 ?x5654)))
 (let ((?x2368 (ite (or (= 22802 (+ x_months 24003)) (= 25202 (+ x_months 24003))) 28 ?x3536)))
 (let (($x3358 (<= 0 x_beta)))
 (and $x3358 (< x_beta ?x2368))))))))))))))))))))))))))))))))))))))))))))))))))))))))
(assert
 (let (($x3358 (<= 0 x_beta)))
 (or (> x_months (- (+ (* 2023 12) 1) 24003)) (and (= x_months (- (+ (* 2023 12) 1) 24003)) $x3358))))
(assert
 (let ((?x4643 (+ x_months 0)))
(let ((?x3675 (mod ?x4643 48)))
(let ((?x5529 (ite (> 22803 (+ ?x4643 24003)) 1 (ite (<= 25203 (+ ?x4643 24003)) (- 1) 0))))
(let ((?x211 ((as const (Array Int Int)) 0)))
(let ((?x213 (store ?x211 0 31)))
(let ((?x216 (store ?x213 1 30)))
(let ((?x218 (store ?x216 2 31)))
(let ((?x220 (store ?x218 3 30)))
(let ((?x222 (store ?x220 4 31)))
(let ((?x224 (store ?x222 5 31)))
(let ((?x226 (store ?x224 6 30)))
(let ((?x228 (store ?x226 7 31)))
(let ((?x230 (store ?x228 8 30)))
(let ((?x232 (store ?x230 9 31)))
(let ((?x234 (store ?x232 10 31)))
(let ((?x237 (store ?x234 11 28)))
(let ((?x239 (store ?x237 12 31)))
(let ((?x241 (store ?x239 13 30)))
(let ((?x243 (store ?x241 14 31)))
(let ((?x245 (store ?x243 15 30)))
(let ((?x247 (store ?x245 16 31)))
(let ((?x249 (store ?x247 17 31)))
(let ((?x251 (store ?x249 18 30)))
(let ((?x253 (store ?x251 19 31)))
(let ((?x255 (store ?x253 20 30)))
(let ((?x257 (store ?x255 21 31)))
(let ((?x259 (store ?x257 22 31)))
(let ((?x261 (store ?x259 23 28)))
(let ((?x263 (store ?x261 24 31)))
(let ((?x265 (store ?x263 25 30)))
(let ((?x267 (store ?x265 26 31)))
(let ((?x269 (store ?x267 27 30)))
(let ((?x270 (store ?x269 28 31)))
(let ((?x272 (store ?x270 29 31)))
(let ((?x273 (store ?x272 30 30)))
(let ((?x274 (store ?x273 31 31)))
(let ((?x276 (store ?x274 32 30)))
(let ((?x278 (store ?x276 33 31)))
(let ((?x280 (store ?x278 34 31)))
(let ((?x282 (store ?x280 35 28)))
(let ((?x284 (store ?x282 36 31)))
(let ((?x286 (store ?x284 37 30)))
(let ((?x288 (store ?x286 38 31)))
(let ((?x290 (store ?x288 39 30)))
(let ((?x292 (store ?x290 40 31)))
(let ((?x294 (store ?x292 41 31)))
(let ((?x296 (store ?x294 42 30)))
(let ((?x298 (store ?x296 43 31)))
(let ((?x300 (store ?x298 44 30)))
(let ((?x302 (store ?x300 45 31)))
(let ((?x304 (store ?x302 46 31)))
(let ((?x306 (store ?x304 47 29)))
(let ((?x7031 (ite (or (= 22802 (+ ?x4643 24003)) (= 25202 (+ ?x4643 24003))) 28 (select ?x306 ?x3675))))
(let ((?x6585 (- ?x7031 1)))
(let (($x4150 (> 0 x_beta)))
(let ((?x312 (store (store (store (store ?x211 0 0) 1 31) 2 61) 3 92)))
(let ((?x320 (store (store (store (store ?x312 4 122) 5 153) 6 184) 7 214)))
(let ((?x328 (store (store (store (store ?x320 8 245) 9 275) 10 306) 11 337)))
(let ((?x336 (store (store (store (store ?x328 12 365) 13 396) 14 426) 15 457)))
(let ((?x344 (store (store (store (store ?x336 16 487) 17 518) 18 549) 19 579)))
(let ((?x352 (store (store (store (store ?x344 20 610) 21 640) 22 671) 23 702)))
(let ((?x360 (store (store (store (store ?x352 24 730) 25 761) 26 791) 27 822)))
(let ((?x368 (store (store (store (store ?x360 28 852) 29 883) 30 914) 31 944)))
(let ((?x376 (store (store (store (store ?x368 32 975) 33 1005) 34 1036) 35 1067)))
(let ((?x384 (store (store (store (store ?x376 36 1095) 37 1126) 38 1156) 39 1187)))
(let ((?x392 (store (store (store (store ?x384 40 1217) 41 1248) 42 1279) 43 1309)))
(let ((?x400 (store (store (store (store ?x392 44 1340) 45 1370) 46 1401) 47 1432)))
(let ((?x7044 (+ (select ?x400 ?x3675) (ite $x4150 0 (ite (> x_beta ?x6585) ?x6585 x_beta)))))
(let ((?x3846 (+ (+ ?x7044 ?x5529) 31)))
(let ((?x5732 (+ ?x4643 (* (div ?x3846 1461) 48))))
(let ((?x5629 (+ (+ ?x5732 (- 1 ?x3675)) 24003)))
(let ((?x4245 (select ?x400 1)))
(let ((?x7059 (mod ?x3846 1461)))
(let (($x3587 (>= ?x7059 (+ ?x4245 (ite (> 22803 ?x5629) 1 (ite (<= 25203 ?x5629) (- 1) 0))))))
(let ((?x3229 (ite (> 22803 (+ (+ ?x5732 (- 2 ?x3675)) 24003)) 1 (ite (<= 25203 (+ (+ ?x5732 (- 2 ?x3675)) 24003)) (- 1) 0))))
(let ((?x4282 (select ?x400 2)))
(let ((?x1920 (ite (> 22803 (+ (+ ?x5732 (- 3 ?x3675)) 24003)) 1 (ite (<= 25203 (+ (+ ?x5732 (- 3 ?x3675)) 24003)) (- 1) 0))))
(let ((?x4336 (select ?x400 3)))
(let ((?x1031 (ite (>= ?x7059 (+ ?x4336 ?x1920)) 3 (ite (>= ?x7059 (+ ?x4282 ?x3229)) 2 (ite $x3587 1 0)))))
(let ((?x3727 (ite (> 22803 (+ (+ ?x5732 (- 4 ?x3675)) 24003)) 1 (ite (<= 25203 (+ (+ ?x5732 (- 4 ?x3675)) 24003)) (- 1) 0))))
(let ((?x3862 (select ?x400 4)))
(let ((?x4102 (ite (> 22803 (+ (+ ?x5732 (- 5 ?x3675)) 24003)) 1 (ite (<= 25203 (+ (+ ?x5732 (- 5 ?x3675)) 24003)) (- 1) 0))))
(let ((?x3982 (select ?x400 5)))
(let ((?x5240 (ite (>= ?x7059 (+ ?x3982 ?x4102)) 5 (ite (>= ?x7059 (+ ?x3862 ?x3727)) 4 ?x1031))))
(let ((?x6709 (ite (> 22803 (+ (+ ?x5732 (- 6 ?x3675)) 24003)) 1 (ite (<= 25203 (+ (+ ?x5732 (- 6 ?x3675)) 24003)) (- 1) 0))))
(let ((?x3841 (select ?x400 6)))
(let ((?x571 (ite (> 22803 (+ (+ ?x5732 (- 7 ?x3675)) 24003)) 1 (ite (<= 25203 (+ (+ ?x5732 (- 7 ?x3675)) 24003)) (- 1) 0))))
(let ((?x2111 (select ?x400 7)))
(let ((?x6949 (ite (>= ?x7059 (+ ?x2111 ?x571)) 7 (ite (>= ?x7059 (+ ?x3841 ?x6709)) 6 ?x5240))))
(let ((?x3813 (ite (> 22803 (+ (+ ?x5732 (- 8 ?x3675)) 24003)) 1 (ite (<= 25203 (+ (+ ?x5732 (- 8 ?x3675)) 24003)) (- 1) 0))))
(let ((?x4925 (select ?x400 8)))
(let ((?x3742 (ite (> 22803 (+ (+ ?x5732 (- 9 ?x3675)) 24003)) 1 (ite (<= 25203 (+ (+ ?x5732 (- 9 ?x3675)) 24003)) (- 1) 0))))
(let ((?x3524 (select ?x400 9)))
(let ((?x5180 (ite (>= ?x7059 (+ ?x3524 ?x3742)) 9 (ite (>= ?x7059 (+ ?x4925 ?x3813)) 8 ?x6949))))
(let ((?x5836 (ite (> 22803 (+ (+ ?x5732 (- 10 ?x3675)) 24003)) 1 (ite (<= 25203 (+ (+ ?x5732 (- 10 ?x3675)) 24003)) (- 1) 0))))
(let ((?x3419 (select ?x400 10)))
(let ((?x5657 (ite (> 22803 (+ (+ ?x5732 (- 11 ?x3675)) 24003)) 1 (ite (<= 25203 (+ (+ ?x5732 (- 11 ?x3675)) 24003)) (- 1) 0))))
(let ((?x6620 (select ?x400 11)))
(let ((?x4923 (ite (>= ?x7059 (+ ?x6620 ?x5657)) 11 (ite (>= ?x7059 (+ ?x3419 ?x5836)) 10 ?x5180))))
(let ((?x5956 (ite (> 22803 (+ (+ ?x5732 (- 12 ?x3675)) 24003)) 1 (ite (<= 25203 (+ (+ ?x5732 (- 12 ?x3675)) 24003)) (- 1) 0))))
(let ((?x4223 (select ?x400 12)))
(let ((?x3444 (ite (> 22803 (+ (+ ?x5732 (- 13 ?x3675)) 24003)) 1 (ite (<= 25203 (+ (+ ?x5732 (- 13 ?x3675)) 24003)) (- 1) 0))))
(let ((?x4861 (select ?x400 13)))
(let ((?x2401 (ite (>= ?x7059 (+ ?x4861 ?x3444)) 13 (ite (>= ?x7059 (+ ?x4223 ?x5956)) 12 ?x4923))))
(let ((?x5846 (ite (> 22803 (+ (+ ?x5732 (- 14 ?x3675)) 24003)) 1 (ite (<= 25203 (+ (+ ?x5732 (- 14 ?x3675)) 24003)) (- 1) 0))))
(let ((?x433 (select ?x400 14)))
(let ((?x1036 (ite (> 22803 (+ (+ ?x5732 (- 15 ?x3675)) 24003)) 1 (ite (<= 25203 (+ (+ ?x5732 (- 15 ?x3675)) 24003)) (- 1) 0))))
(let ((?x3747 (select ?x400 15)))
(let ((?x5966 (ite (>= ?x7059 (+ ?x3747 ?x1036)) 15 (ite (>= ?x7059 (+ ?x433 ?x5846)) 14 ?x2401))))
(let ((?x4729 (ite (> 22803 (+ (+ ?x5732 (- 16 ?x3675)) 24003)) 1 (ite (<= 25203 (+ (+ ?x5732 (- 16 ?x3675)) 24003)) (- 1) 0))))
(let ((?x3999 (select ?x400 16)))
(let ((?x6633 (ite (> 22803 (+ (+ ?x5732 (- 17 ?x3675)) 24003)) 1 (ite (<= 25203 (+ (+ ?x5732 (- 17 ?x3675)) 24003)) (- 1) 0))))
(let ((?x3520 (select ?x400 17)))
(let ((?x3264 (ite (>= ?x7059 (+ ?x3520 ?x6633)) 17 (ite (>= ?x7059 (+ ?x3999 ?x4729)) 16 ?x5966))))
(let ((?x1406 (ite (> 22803 (+ (+ ?x5732 (- 18 ?x3675)) 24003)) 1 (ite (<= 25203 (+ (+ ?x5732 (- 18 ?x3675)) 24003)) (- 1) 0))))
(let ((?x4856 (select ?x400 18)))
(let ((?x5303 (ite (> 22803 (+ (+ ?x5732 (- 19 ?x3675)) 24003)) 1 (ite (<= 25203 (+ (+ ?x5732 (- 19 ?x3675)) 24003)) (- 1) 0))))
(let ((?x2999 (select ?x400 19)))
(let ((?x6467 (ite (>= ?x7059 (+ ?x2999 ?x5303)) 19 (ite (>= ?x7059 (+ ?x4856 ?x1406)) 18 ?x3264))))
(let ((?x918 (ite (> 22803 (+ (+ ?x5732 (- 20 ?x3675)) 24003)) 1 (ite (<= 25203 (+ (+ ?x5732 (- 20 ?x3675)) 24003)) (- 1) 0))))
(let ((?x5208 (select ?x400 20)))
(let ((?x666 (ite (> 22803 (+ (+ ?x5732 (- 21 ?x3675)) 24003)) 1 (ite (<= 25203 (+ (+ ?x5732 (- 21 ?x3675)) 24003)) (- 1) 0))))
(let ((?x3104 (select ?x400 21)))
(let ((?x808 (ite (>= ?x7059 (+ ?x3104 ?x666)) 21 (ite (>= ?x7059 (+ ?x5208 ?x918)) 20 ?x6467))))
(let ((?x6892 (ite (> 22803 (+ (+ ?x5732 (- 22 ?x3675)) 24003)) 1 (ite (<= 25203 (+ (+ ?x5732 (- 22 ?x3675)) 24003)) (- 1) 0))))
(let ((?x4966 (select ?x400 22)))
(let ((?x5936 (ite (> 22803 (+ (+ ?x5732 (- 23 ?x3675)) 24003)) 1 (ite (<= 25203 (+ (+ ?x5732 (- 23 ?x3675)) 24003)) (- 1) 0))))
(let ((?x3891 (select ?x400 23)))
(let ((?x4290 (ite (>= ?x7059 (+ ?x3891 ?x5936)) 23 (ite (>= ?x7059 (+ ?x4966 ?x6892)) 22 ?x808))))
(let ((?x5254 (ite (> 22803 (+ (+ ?x5732 (- 24 ?x3675)) 24003)) 1 (ite (<= 25203 (+ (+ ?x5732 (- 24 ?x3675)) 24003)) (- 1) 0))))
(let ((?x6300 (select ?x400 24)))
(let ((?x1826 (ite (> 22803 (+ (+ ?x5732 (- 25 ?x3675)) 24003)) 1 (ite (<= 25203 (+ (+ ?x5732 (- 25 ?x3675)) 24003)) (- 1) 0))))
(let ((?x4741 (select ?x400 25)))
(let ((?x2337 (ite (>= ?x7059 (+ ?x4741 ?x1826)) 25 (ite (>= ?x7059 (+ ?x6300 ?x5254)) 24 ?x4290))))
(let ((?x470 (ite (> 22803 (+ (+ ?x5732 (- 26 ?x3675)) 24003)) 1 (ite (<= 25203 (+ (+ ?x5732 (- 26 ?x3675)) 24003)) (- 1) 0))))
(let ((?x790 (select ?x400 26)))
(let ((?x6461 (ite (> 22803 (+ (+ ?x5732 (- 27 ?x3675)) 24003)) 1 (ite (<= 25203 (+ (+ ?x5732 (- 27 ?x3675)) 24003)) (- 1) 0))))
(let ((?x4553 (select ?x400 27)))
(let ((?x1721 (ite (>= ?x7059 (+ ?x4553 ?x6461)) 27 (ite (>= ?x7059 (+ ?x790 ?x470)) 26 ?x2337))))
(let ((?x4715 (ite (> 22803 (+ (+ ?x5732 (- 28 ?x3675)) 24003)) 1 (ite (<= 25203 (+ (+ ?x5732 (- 28 ?x3675)) 24003)) (- 1) 0))))
(let ((?x6888 (select ?x400 28)))
(let ((?x6558 (ite (> 22803 (+ (+ ?x5732 (- 29 ?x3675)) 24003)) 1 (ite (<= 25203 (+ (+ ?x5732 (- 29 ?x3675)) 24003)) (- 1) 0))))
(let ((?x3202 (select ?x400 29)))
(let ((?x5033 (ite (>= ?x7059 (+ ?x3202 ?x6558)) 29 (ite (>= ?x7059 (+ ?x6888 ?x4715)) 28 ?x1721))))
(let ((?x4739 (ite (> 22803 (+ (+ ?x5732 (- 30 ?x3675)) 24003)) 1 (ite (<= 25203 (+ (+ ?x5732 (- 30 ?x3675)) 24003)) (- 1) 0))))
(let ((?x3511 (select ?x400 30)))
(let ((?x5074 (ite (> 22803 (+ (+ ?x5732 (- 31 ?x3675)) 24003)) 1 (ite (<= 25203 (+ (+ ?x5732 (- 31 ?x3675)) 24003)) (- 1) 0))))
(let ((?x3925 (select ?x400 31)))
(let ((?x5615 (ite (>= ?x7059 (+ ?x3925 ?x5074)) 31 (ite (>= ?x7059 (+ ?x3511 ?x4739)) 30 ?x5033))))
(let ((?x676 (ite (> 22803 (+ (+ ?x5732 (- 32 ?x3675)) 24003)) 1 (ite (<= 25203 (+ (+ ?x5732 (- 32 ?x3675)) 24003)) (- 1) 0))))
(let ((?x4988 (select ?x400 32)))
(let ((?x1562 (ite (> 22803 (+ (+ ?x5732 (- 33 ?x3675)) 24003)) 1 (ite (<= 25203 (+ (+ ?x5732 (- 33 ?x3675)) 24003)) (- 1) 0))))
(let ((?x4239 (select ?x400 33)))
(let ((?x5485 (ite (>= ?x7059 (+ ?x4239 ?x1562)) 33 (ite (>= ?x7059 (+ ?x4988 ?x676)) 32 ?x5615))))
(let ((?x2339 (ite (> 22803 (+ (+ ?x5732 (- 34 ?x3675)) 24003)) 1 (ite (<= 25203 (+ (+ ?x5732 (- 34 ?x3675)) 24003)) (- 1) 0))))
(let ((?x1584 (select ?x400 34)))
(let ((?x4977 (ite (> 22803 (+ (+ ?x5732 (- 35 ?x3675)) 24003)) 1 (ite (<= 25203 (+ (+ ?x5732 (- 35 ?x3675)) 24003)) (- 1) 0))))
(let ((?x5634 (select ?x400 35)))
(let ((?x1886 (ite (>= ?x7059 (+ ?x5634 ?x4977)) 35 (ite (>= ?x7059 (+ ?x1584 ?x2339)) 34 ?x5485))))
(let ((?x1599 (ite (> 22803 (+ (+ ?x5732 (- 36 ?x3675)) 24003)) 1 (ite (<= 25203 (+ (+ ?x5732 (- 36 ?x3675)) 24003)) (- 1) 0))))
(let ((?x4864 (select ?x400 36)))
(let ((?x5395 (ite (> 22803 (+ (+ ?x5732 (- 37 ?x3675)) 24003)) 1 (ite (<= 25203 (+ (+ ?x5732 (- 37 ?x3675)) 24003)) (- 1) 0))))
(let ((?x4964 (select ?x400 37)))
(let ((?x1137 (ite (>= ?x7059 (+ ?x4964 ?x5395)) 37 (ite (>= ?x7059 (+ ?x4864 ?x1599)) 36 ?x1886))))
(let ((?x6012 (ite (> 22803 (+ (+ ?x5732 (- 38 ?x3675)) 24003)) 1 (ite (<= 25203 (+ (+ ?x5732 (- 38 ?x3675)) 24003)) (- 1) 0))))
(let ((?x4714 (select ?x400 38)))
(let ((?x6774 (ite (> 22803 (+ (+ ?x5732 (- 39 ?x3675)) 24003)) 1 (ite (<= 25203 (+ (+ ?x5732 (- 39 ?x3675)) 24003)) (- 1) 0))))
(let ((?x6060 (select ?x400 39)))
(let ((?x5471 (ite (>= ?x7059 (+ ?x6060 ?x6774)) 39 (ite (>= ?x7059 (+ ?x4714 ?x6012)) 38 ?x1137))))
(let ((?x6570 (ite (> 22803 (+ (+ ?x5732 (- 40 ?x3675)) 24003)) 1 (ite (<= 25203 (+ (+ ?x5732 (- 40 ?x3675)) 24003)) (- 1) 0))))
(let ((?x6453 (select ?x400 40)))
(let ((?x6998 (ite (> 22803 (+ (+ ?x5732 (- 41 ?x3675)) 24003)) 1 (ite (<= 25203 (+ (+ ?x5732 (- 41 ?x3675)) 24003)) (- 1) 0))))
(let ((?x6253 (select ?x400 41)))
(let ((?x4173 (ite (>= ?x7059 (+ ?x6253 ?x6998)) 41 (ite (>= ?x7059 (+ ?x6453 ?x6570)) 40 ?x5471))))
(let ((?x2452 (ite (> 22803 (+ (+ ?x5732 (- 42 ?x3675)) 24003)) 1 (ite (<= 25203 (+ (+ ?x5732 (- 42 ?x3675)) 24003)) (- 1) 0))))
(let ((?x3935 (select ?x400 42)))
(let ((?x5590 (ite (> 22803 (+ (+ ?x5732 (- 43 ?x3675)) 24003)) 1 (ite (<= 25203 (+ (+ ?x5732 (- 43 ?x3675)) 24003)) (- 1) 0))))
(let ((?x553 (select ?x400 43)))
(let ((?x5541 (ite (>= ?x7059 (+ ?x553 ?x5590)) 43 (ite (>= ?x7059 (+ ?x3935 ?x2452)) 42 ?x4173))))
(let ((?x5034 (ite (> 22803 (+ (+ ?x5732 (- 44 ?x3675)) 24003)) 1 (ite (<= 25203 (+ (+ ?x5732 (- 44 ?x3675)) 24003)) (- 1) 0))))
(let ((?x6162 (select ?x400 44)))
(let ((?x1403 (ite (> 22803 (+ (+ ?x5732 (- 45 ?x3675)) 24003)) 1 (ite (<= 25203 (+ (+ ?x5732 (- 45 ?x3675)) 24003)) (- 1) 0))))
(let ((?x1360 (select ?x400 45)))
(let ((?x5013 (ite (>= ?x7059 (+ ?x1360 ?x1403)) 45 (ite (>= ?x7059 (+ ?x6162 ?x5034)) 44 ?x5541))))
(let ((?x2220 (ite (> 22803 (+ (+ ?x5732 (- 46 ?x3675)) 24003)) 1 (ite (<= 25203 (+ (+ ?x5732 (- 46 ?x3675)) 24003)) (- 1) 0))))
(let ((?x2513 (select ?x400 46)))
(let ((?x1076 (ite (> 22803 (+ (+ ?x5732 (- 47 ?x3675)) 24003)) 1 (ite (<= 25203 (+ (+ ?x5732 (- 47 ?x3675)) 24003)) (- 1) 0))))
(let ((?x6172 (select ?x400 47)))
(let ((?x6819 (ite (>= ?x7059 (+ ?x6172 ?x1076)) 47 (ite (>= ?x7059 (+ ?x2513 ?x2220)) 46 ?x5013))))
(let ((?x5453 (+ ?x5732 (- ?x6819 ?x3675))))
(let ((?x5917 (+ ?x5453 24003)))
(let ((?x5793 (+ (select ?x400 ?x6819) (ite (> 22803 ?x5917) 1 (ite (<= 25203 ?x5917) (- 1) 0)))))
(let ((?x6153 (- ?x7059 ?x5793)))
(let ((?x6323 (ite (or (= 22802 ?x5917) (= 25202 ?x5917)) 28 (select ?x306 ?x6819))))
(let ((?x412 (+ x_months 1)))
(let ((?x4251 (mod ?x412 48)))
(let ((?x4174 (ite (> 22803 (+ ?x412 24003)) 1 (ite (<= 25203 (+ ?x412 24003)) (- 1) 0))))
(let ((?x811 (ite (or (= 22802 (+ ?x412 24003)) (= 25202 (+ ?x412 24003))) 28 (select ?x306 ?x4251))))
(let ((?x3736 (- ?x811 1)))
(let ((?x1573 (+ (select ?x400 ?x4251) (ite $x4150 0 (ite (> x_beta ?x3736) ?x3736 x_beta)))))
(let ((?x683 (+ (+ ?x1573 ?x4174) 0)))
(let ((?x4583 (+ ?x412 (* (div ?x683 1461) 48))))
(let ((?x543 (+ (+ ?x4583 (- 1 ?x4251)) 24003)))
(let ((?x2674 (mod ?x683 1461)))
(let (($x4127 (>= ?x2674 (+ ?x4245 (ite (> 22803 ?x543) 1 (ite (<= 25203 ?x543) (- 1) 0))))))
(let ((?x4137 (ite (> 22803 (+ (+ ?x4583 (- 2 ?x4251)) 24003)) 1 (ite (<= 25203 (+ (+ ?x4583 (- 2 ?x4251)) 24003)) (- 1) 0))))
(let ((?x914 (ite (> 22803 (+ (+ ?x4583 (- 3 ?x4251)) 24003)) 1 (ite (<= 25203 (+ (+ ?x4583 (- 3 ?x4251)) 24003)) (- 1) 0))))
(let ((?x3123 (ite (>= ?x2674 (+ ?x4336 ?x914)) 3 (ite (>= ?x2674 (+ ?x4282 ?x4137)) 2 (ite $x4127 1 0)))))
(let ((?x668 (ite (> 22803 (+ (+ ?x4583 (- 4 ?x4251)) 24003)) 1 (ite (<= 25203 (+ (+ ?x4583 (- 4 ?x4251)) 24003)) (- 1) 0))))
(let ((?x1600 (ite (> 22803 (+ (+ ?x4583 (- 5 ?x4251)) 24003)) 1 (ite (<= 25203 (+ (+ ?x4583 (- 5 ?x4251)) 24003)) (- 1) 0))))
(let ((?x1868 (ite (>= ?x2674 (+ ?x3982 ?x1600)) 5 (ite (>= ?x2674 (+ ?x3862 ?x668)) 4 ?x3123))))
(let ((?x742 (ite (> 22803 (+ (+ ?x4583 (- 6 ?x4251)) 24003)) 1 (ite (<= 25203 (+ (+ ?x4583 (- 6 ?x4251)) 24003)) (- 1) 0))))
(let ((?x5290 (ite (> 22803 (+ (+ ?x4583 (- 7 ?x4251)) 24003)) 1 (ite (<= 25203 (+ (+ ?x4583 (- 7 ?x4251)) 24003)) (- 1) 0))))
(let ((?x5710 (ite (>= ?x2674 (+ ?x2111 ?x5290)) 7 (ite (>= ?x2674 (+ ?x3841 ?x742)) 6 ?x1868))))
(let ((?x4540 (ite (> 22803 (+ (+ ?x4583 (- 8 ?x4251)) 24003)) 1 (ite (<= 25203 (+ (+ ?x4583 (- 8 ?x4251)) 24003)) (- 1) 0))))
(let ((?x4285 (ite (> 22803 (+ (+ ?x4583 (- 9 ?x4251)) 24003)) 1 (ite (<= 25203 (+ (+ ?x4583 (- 9 ?x4251)) 24003)) (- 1) 0))))
(let ((?x4408 (ite (>= ?x2674 (+ ?x3524 ?x4285)) 9 (ite (>= ?x2674 (+ ?x4925 ?x4540)) 8 ?x5710))))
(let ((?x2040 (ite (> 22803 (+ (+ ?x4583 (- 10 ?x4251)) 24003)) 1 (ite (<= 25203 (+ (+ ?x4583 (- 10 ?x4251)) 24003)) (- 1) 0))))
(let ((?x3384 (ite (> 22803 (+ (+ ?x4583 (- 11 ?x4251)) 24003)) 1 (ite (<= 25203 (+ (+ ?x4583 (- 11 ?x4251)) 24003)) (- 1) 0))))
(let ((?x3821 (ite (>= ?x2674 (+ ?x6620 ?x3384)) 11 (ite (>= ?x2674 (+ ?x3419 ?x2040)) 10 ?x4408))))
(let ((?x4194 (ite (> 22803 (+ (+ ?x4583 (- 12 ?x4251)) 24003)) 1 (ite (<= 25203 (+ (+ ?x4583 (- 12 ?x4251)) 24003)) (- 1) 0))))
(let ((?x5410 (ite (> 22803 (+ (+ ?x4583 (- 13 ?x4251)) 24003)) 1 (ite (<= 25203 (+ (+ ?x4583 (- 13 ?x4251)) 24003)) (- 1) 0))))
(let ((?x5855 (ite (>= ?x2674 (+ ?x4861 ?x5410)) 13 (ite (>= ?x2674 (+ ?x4223 ?x4194)) 12 ?x3821))))
(let ((?x5325 (ite (> 22803 (+ (+ ?x4583 (- 14 ?x4251)) 24003)) 1 (ite (<= 25203 (+ (+ ?x4583 (- 14 ?x4251)) 24003)) (- 1) 0))))
(let ((?x4032 (ite (> 22803 (+ (+ ?x4583 (- 15 ?x4251)) 24003)) 1 (ite (<= 25203 (+ (+ ?x4583 (- 15 ?x4251)) 24003)) (- 1) 0))))
(let ((?x1614 (ite (>= ?x2674 (+ ?x3747 ?x4032)) 15 (ite (>= ?x2674 (+ ?x433 ?x5325)) 14 ?x5855))))
(let ((?x5064 (ite (> 22803 (+ (+ ?x4583 (- 16 ?x4251)) 24003)) 1 (ite (<= 25203 (+ (+ ?x4583 (- 16 ?x4251)) 24003)) (- 1) 0))))
(let ((?x2689 (ite (> 22803 (+ (+ ?x4583 (- 17 ?x4251)) 24003)) 1 (ite (<= 25203 (+ (+ ?x4583 (- 17 ?x4251)) 24003)) (- 1) 0))))
(let ((?x4939 (ite (>= ?x2674 (+ ?x3520 ?x2689)) 17 (ite (>= ?x2674 (+ ?x3999 ?x5064)) 16 ?x1614))))
(let ((?x580 (ite (> 22803 (+ (+ ?x4583 (- 18 ?x4251)) 24003)) 1 (ite (<= 25203 (+ (+ ?x4583 (- 18 ?x4251)) 24003)) (- 1) 0))))
(let ((?x4783 (ite (> 22803 (+ (+ ?x4583 (- 19 ?x4251)) 24003)) 1 (ite (<= 25203 (+ (+ ?x4583 (- 19 ?x4251)) 24003)) (- 1) 0))))
(let ((?x3943 (ite (>= ?x2674 (+ ?x2999 ?x4783)) 19 (ite (>= ?x2674 (+ ?x4856 ?x580)) 18 ?x4939))))
(let ((?x1598 (ite (> 22803 (+ (+ ?x4583 (- 20 ?x4251)) 24003)) 1 (ite (<= 25203 (+ (+ ?x4583 (- 20 ?x4251)) 24003)) (- 1) 0))))
(let ((?x2054 (ite (> 22803 (+ (+ ?x4583 (- 21 ?x4251)) 24003)) 1 (ite (<= 25203 (+ (+ ?x4583 (- 21 ?x4251)) 24003)) (- 1) 0))))
(let ((?x3222 (ite (>= ?x2674 (+ ?x3104 ?x2054)) 21 (ite (>= ?x2674 (+ ?x5208 ?x1598)) 20 ?x3943))))
(let ((?x5051 (ite (> 22803 (+ (+ ?x4583 (- 22 ?x4251)) 24003)) 1 (ite (<= 25203 (+ (+ ?x4583 (- 22 ?x4251)) 24003)) (- 1) 0))))
(let ((?x3124 (ite (> 22803 (+ (+ ?x4583 (- 23 ?x4251)) 24003)) 1 (ite (<= 25203 (+ (+ ?x4583 (- 23 ?x4251)) 24003)) (- 1) 0))))
(let ((?x6946 (ite (>= ?x2674 (+ ?x3891 ?x3124)) 23 (ite (>= ?x2674 (+ ?x4966 ?x5051)) 22 ?x3222))))
(let ((?x6828 (ite (> 22803 (+ (+ ?x4583 (- 24 ?x4251)) 24003)) 1 (ite (<= 25203 (+ (+ ?x4583 (- 24 ?x4251)) 24003)) (- 1) 0))))
(let ((?x708 (ite (> 22803 (+ (+ ?x4583 (- 25 ?x4251)) 24003)) 1 (ite (<= 25203 (+ (+ ?x4583 (- 25 ?x4251)) 24003)) (- 1) 0))))
(let ((?x5120 (ite (>= ?x2674 (+ ?x4741 ?x708)) 25 (ite (>= ?x2674 (+ ?x6300 ?x6828)) 24 ?x6946))))
(let ((?x3370 (ite (> 22803 (+ (+ ?x4583 (- 26 ?x4251)) 24003)) 1 (ite (<= 25203 (+ (+ ?x4583 (- 26 ?x4251)) 24003)) (- 1) 0))))
(let ((?x3175 (ite (> 22803 (+ (+ ?x4583 (- 27 ?x4251)) 24003)) 1 (ite (<= 25203 (+ (+ ?x4583 (- 27 ?x4251)) 24003)) (- 1) 0))))
(let ((?x5718 (ite (>= ?x2674 (+ ?x4553 ?x3175)) 27 (ite (>= ?x2674 (+ ?x790 ?x3370)) 26 ?x5120))))
(let ((?x6938 (ite (> 22803 (+ (+ ?x4583 (- 28 ?x4251)) 24003)) 1 (ite (<= 25203 (+ (+ ?x4583 (- 28 ?x4251)) 24003)) (- 1) 0))))
(let ((?x4732 (ite (> 22803 (+ (+ ?x4583 (- 29 ?x4251)) 24003)) 1 (ite (<= 25203 (+ (+ ?x4583 (- 29 ?x4251)) 24003)) (- 1) 0))))
(let ((?x1673 (ite (>= ?x2674 (+ ?x3202 ?x4732)) 29 (ite (>= ?x2674 (+ ?x6888 ?x6938)) 28 ?x5718))))
(let ((?x4890 (ite (> 22803 (+ (+ ?x4583 (- 30 ?x4251)) 24003)) 1 (ite (<= 25203 (+ (+ ?x4583 (- 30 ?x4251)) 24003)) (- 1) 0))))
(let ((?x6059 (ite (> 22803 (+ (+ ?x4583 (- 31 ?x4251)) 24003)) 1 (ite (<= 25203 (+ (+ ?x4583 (- 31 ?x4251)) 24003)) (- 1) 0))))
(let ((?x6177 (ite (>= ?x2674 (+ ?x3925 ?x6059)) 31 (ite (>= ?x2674 (+ ?x3511 ?x4890)) 30 ?x1673))))
(let ((?x5947 (ite (> 22803 (+ (+ ?x4583 (- 32 ?x4251)) 24003)) 1 (ite (<= 25203 (+ (+ ?x4583 (- 32 ?x4251)) 24003)) (- 1) 0))))
(let ((?x5784 (ite (> 22803 (+ (+ ?x4583 (- 33 ?x4251)) 24003)) 1 (ite (<= 25203 (+ (+ ?x4583 (- 33 ?x4251)) 24003)) (- 1) 0))))
(let ((?x4727 (ite (>= ?x2674 (+ ?x4239 ?x5784)) 33 (ite (>= ?x2674 (+ ?x4988 ?x5947)) 32 ?x6177))))
(let ((?x4711 (ite (> 22803 (+ (+ ?x4583 (- 34 ?x4251)) 24003)) 1 (ite (<= 25203 (+ (+ ?x4583 (- 34 ?x4251)) 24003)) (- 1) 0))))
(let ((?x4536 (ite (> 22803 (+ (+ ?x4583 (- 35 ?x4251)) 24003)) 1 (ite (<= 25203 (+ (+ ?x4583 (- 35 ?x4251)) 24003)) (- 1) 0))))
(let ((?x4430 (ite (>= ?x2674 (+ ?x5634 ?x4536)) 35 (ite (>= ?x2674 (+ ?x1584 ?x4711)) 34 ?x4727))))
(let ((?x5161 (ite (> 22803 (+ (+ ?x4583 (- 36 ?x4251)) 24003)) 1 (ite (<= 25203 (+ (+ ?x4583 (- 36 ?x4251)) 24003)) (- 1) 0))))
(let ((?x5469 (ite (> 22803 (+ (+ ?x4583 (- 37 ?x4251)) 24003)) 1 (ite (<= 25203 (+ (+ ?x4583 (- 37 ?x4251)) 24003)) (- 1) 0))))
(let ((?x3427 (ite (>= ?x2674 (+ ?x4964 ?x5469)) 37 (ite (>= ?x2674 (+ ?x4864 ?x5161)) 36 ?x4430))))
(let ((?x5480 (ite (> 22803 (+ (+ ?x4583 (- 38 ?x4251)) 24003)) 1 (ite (<= 25203 (+ (+ ?x4583 (- 38 ?x4251)) 24003)) (- 1) 0))))
(let ((?x3884 (ite (> 22803 (+ (+ ?x4583 (- 39 ?x4251)) 24003)) 1 (ite (<= 25203 (+ (+ ?x4583 (- 39 ?x4251)) 24003)) (- 1) 0))))
(let ((?x5865 (ite (>= ?x2674 (+ ?x6060 ?x3884)) 39 (ite (>= ?x2674 (+ ?x4714 ?x5480)) 38 ?x3427))))
(let ((?x3868 (ite (> 22803 (+ (+ ?x4583 (- 40 ?x4251)) 24003)) 1 (ite (<= 25203 (+ (+ ?x4583 (- 40 ?x4251)) 24003)) (- 1) 0))))
(let ((?x5147 (ite (> 22803 (+ (+ ?x4583 (- 41 ?x4251)) 24003)) 1 (ite (<= 25203 (+ (+ ?x4583 (- 41 ?x4251)) 24003)) (- 1) 0))))
(let ((?x3996 (ite (>= ?x2674 (+ ?x6253 ?x5147)) 41 (ite (>= ?x2674 (+ ?x6453 ?x3868)) 40 ?x5865))))
(let ((?x6554 (ite (> 22803 (+ (+ ?x4583 (- 42 ?x4251)) 24003)) 1 (ite (<= 25203 (+ (+ ?x4583 (- 42 ?x4251)) 24003)) (- 1) 0))))
(let ((?x4989 (ite (> 22803 (+ (+ ?x4583 (- 43 ?x4251)) 24003)) 1 (ite (<= 25203 (+ (+ ?x4583 (- 43 ?x4251)) 24003)) (- 1) 0))))
(let ((?x4671 (ite (>= ?x2674 (+ ?x553 ?x4989)) 43 (ite (>= ?x2674 (+ ?x3935 ?x6554)) 42 ?x3996))))
(let ((?x2412 (ite (> 22803 (+ (+ ?x4583 (- 44 ?x4251)) 24003)) 1 (ite (<= 25203 (+ (+ ?x4583 (- 44 ?x4251)) 24003)) (- 1) 0))))
(let ((?x823 (ite (> 22803 (+ (+ ?x4583 (- 45 ?x4251)) 24003)) 1 (ite (<= 25203 (+ (+ ?x4583 (- 45 ?x4251)) 24003)) (- 1) 0))))
(let ((?x4544 (ite (>= ?x2674 (+ ?x1360 ?x823)) 45 (ite (>= ?x2674 (+ ?x6162 ?x2412)) 44 ?x4671))))
(let ((?x1506 (ite (> 22803 (+ (+ ?x4583 (- 46 ?x4251)) 24003)) 1 (ite (<= 25203 (+ (+ ?x4583 (- 46 ?x4251)) 24003)) (- 1) 0))))
(let ((?x5092 (ite (> 22803 (+ (+ ?x4583 (- 47 ?x4251)) 24003)) 1 (ite (<= 25203 (+ (+ ?x4583 (- 47 ?x4251)) 24003)) (- 1) 0))))
(let ((?x2538 (ite (>= ?x2674 (+ ?x6172 ?x5092)) 47 (ite (>= ?x2674 (+ ?x2513 ?x1506)) 46 ?x4544))))
(let ((?x5231 (+ ?x4583 (- ?x2538 ?x4251))))
(let ((?x6492 (+ ?x5231 24003)))
(let ((?x5271 (+ (select ?x400 ?x2538) (ite (> 22803 ?x6492) 1 (ite (<= 25203 ?x6492) (- 1) 0)))))
(let ((?x4550 (- ?x2674 ?x5271)))
(let ((?x3812 (ite (or (= 22802 ?x6492) (= 25202 ?x6492)) 28 (select ?x306 ?x2538))))
(let (($x759 (<= (ite (= 1 (ite (>= ?x4550 ?x3812) 1 0)) (- ?x4550 ?x3812) ?x4550) (ite (= 1 (ite (>= ?x6153 ?x6323) 1 0)) (- ?x6153 ?x6323) ?x6153))))
(let ((?x6156 (ite (>= ?x6153 ?x6323) 1 0)))
(let ((?x6394 (+ ?x5453 ?x6156)))
(let ((?x3983 (ite (>= ?x4550 ?x3812) 1 0)))
(let ((?x4972 (+ ?x5231 ?x3983)))
(not (or (< ?x4972 ?x6394) (and (= ?x4972 ?x6394) $x759))))))))))))))))))))))))))))))))))))))))))))))))))))))))))))))))))))))))))))))))))))))))))))))))))))))))))))))))))))))))))))))))))))))))))))))))))))))))))))))))))))))))))))))))))))))))))))))))))))))))))))))))))))))))))))))))))))))))))))))))))))))))))))))))))))))))))))))))))))))))))))))))
(check-sat)
